SCIP version 5.0.0 [precision: 8 byte] [memory: block] [mode: optimized] [LP solver: NONE] [GitHash: 3bbd232]
Copyright (C) 2002-2017 Konrad-Zuse-Zentrum fuer Informationstechnik Berlin (ZIB)

External codes: 
  Readline EditLine w  GNU library for command line editing (gnu.org/s/readline)
  CppAD 20160000.1     Algorithmic Differentiation of C++ algorithms developed by B. Bell (www.coin-or.org/CppAD)
  ZLIB 1.2.5           General purpose compression library by J. Gailly and M. Adler (zlib.net)
  GMP 6.1.2            GNU Multiple Precision Arithmetic Library developed by T. Granlund (gmplib.org)

user parameter file <scip.set> not found - using default parameters

read problem <../../Split_data/output/parkin/2/4_sample_parkin.logreg>
============

File name	:	../../Split_data/output/parkin/2/4_sample_parkin.logreg
Problem name 	:	4_sample_parkin
Number of data	:	156
Number of var	:	22
The given data has linear independence

[dim=1] time: 0.00314
[dim=2] time: 0.006297
[dim=3] time: 0.010982
[dim=4] time: 0.015467
[dim=5] time: 0.019357
[dim=6] Time of forward = 0.022759sec.
AIC: 95.47
k: 5

[dim=22] time: 0.051289
[dim=21] time: 0.066771
[dim=20] time: 0.074061
[dim=19] time: 0.087809
[dim=18] time: 0.094099
[dim=17] time: 0.097107
[dim=16] time: 0.099833
[dim=15] time: 0.1026
[dim=14] time: 0.104562
[dim=13] time: 0.106969
[dim=12] time: 0.108406
[dim=11] time: 0.110626
[dim=10] time: 0.112437
[dim=9] Time of backward = 0.114138sec.
AIC: 87.8977
k: 10
